(set-logic QF_LRA)
(declare-fun X0 () Real )
(declare-fun Y0 () Real )
(declare-fun X1 () Real )
(declare-fun Y1 () Real )
(declare-fun X2 () Real )
(declare-fun Y2 () Real )
(declare-fun X3 () Real )
(declare-fun Y3 () Real )
(declare-fun X4 () Real )
(declare-fun Y4 () Real )
(declare-fun X5 () Real )
(declare-fun Y5 () Real )
(declare-fun X6 () Real )
(declare-fun Y6 () Real )
(declare-fun X7 () Real )
(declare-fun Y7 () Real )
(declare-fun X8 () Real )
(declare-fun Y8 () Real )
(declare-fun X9 () Real )
(declare-fun Y9 () Real )
(declare-fun X10 () Real )
(declare-fun Y10 () Real )
(declare-fun X11 () Real )
(declare-fun Y11 () Real )
(declare-fun X12 () Real )
(declare-fun Y12 () Real )
(declare-fun X13 () Real )
(declare-fun Y13 () Real )
(declare-fun X14 () Real )
(declare-fun Y14 () Real )
(declare-fun X15 () Real )
(declare-fun Y15 () Real )
(declare-fun X16 () Real )
(declare-fun Y16 () Real )
(declare-fun X17 () Real )
(declare-fun Y17 () Real )
(declare-fun Z () Real )
(declare-fun k () Real )
(assert (let
(( $goal (>= Z k) ))
(let
((
$phi ( and 
( or ( <= ( + X0 26 ) X1 )  ( <= ( + X1 91 ) X0 )  ( <= ( + Y0 69 ) Y1 )  ( <= ( + Y1 36 ) Y0 )  )
( or ( <= ( + X0 26 ) X2 )  ( <= ( + X2 3 ) X0 )  ( <= ( + Y0 69 ) Y2 )  ( <= ( + Y2 19 ) Y0 )  )
( or ( <= ( + X0 26 ) X3 )  ( <= ( + X3 65 ) X0 )  ( <= ( + Y0 69 ) Y3 )  ( <= ( + Y3 25 ) Y0 )  )
( or ( <= ( + X0 26 ) X4 )  ( <= ( + X4 68 ) X0 )  ( <= ( + Y0 69 ) Y4 )  ( <= ( + Y4 38 ) Y0 )  )
( or ( <= ( + X0 26 ) X5 )  ( <= ( + X5 26 ) X0 )  ( <= ( + Y0 69 ) Y5 )  ( <= ( + Y5 32 ) Y0 )  )
( or ( <= ( + X0 26 ) X6 )  ( <= ( + X6 3 ) X0 )  ( <= ( + Y0 69 ) Y6 )  ( <= ( + Y6 45 ) Y0 )  )
( or ( <= ( + X0 26 ) X7 )  ( <= ( + X7 100 ) X0 )  ( <= ( + Y0 69 ) Y7 )  ( <= ( + Y7 70 ) Y0 )  )
( or ( <= ( + X0 26 ) X8 )  ( <= ( + X8 20 ) X0 )  ( <= ( + Y0 69 ) Y8 )  ( <= ( + Y8 88 ) Y0 )  )
( or ( <= ( + X0 26 ) X9 )  ( <= ( + X9 82 ) X0 )  ( <= ( + Y0 69 ) Y9 )  ( <= ( + Y9 65 ) Y0 )  )
( or ( <= ( + X0 26 ) X10 )  ( <= ( + X10 99 ) X0 )  ( <= ( + Y0 69 ) Y10 )  ( <= ( + Y10 26 ) Y0 )  )
( or ( <= ( + X0 26 ) X11 )  ( <= ( + X11 61 ) X0 )  ( <= ( + Y0 69 ) Y11 )  ( <= ( + Y11 83 ) Y0 )  )
( or ( <= ( + X0 26 ) X12 )  ( <= ( + X12 65 ) X0 )  ( <= ( + Y0 69 ) Y12 )  ( <= ( + Y12 67 ) Y0 )  )
( or ( <= ( + X0 26 ) X13 )  ( <= ( + X13 71 ) X0 )  ( <= ( + Y0 69 ) Y13 )  ( <= ( + Y13 51 ) Y0 )  )
( or ( <= ( + X0 26 ) X14 )  ( <= ( + X14 88 ) X0 )  ( <= ( + Y0 69 ) Y14 )  ( <= ( + Y14 73 ) Y0 )  )
( or ( <= ( + X0 26 ) X15 )  ( <= ( + X15 68 ) X0 )  ( <= ( + Y0 69 ) Y15 )  ( <= ( + Y15 21 ) Y0 )  )
( or ( <= ( + X0 26 ) X16 )  ( <= ( + X16 55 ) X0 )  ( <= ( + Y0 69 ) Y16 )  ( <= ( + Y16 67 ) Y0 )  )
( or ( <= ( + X0 26 ) X17 )  ( <= ( + X17 24 ) X0 )  ( <= ( + Y0 69 ) Y17 )  ( <= ( + Y17 92 ) Y0 )  )
( or ( <= ( + X1 91 ) X2 )  ( <= ( + X2 3 ) X1 )  ( <= ( + Y1 36 ) Y2 )  ( <= ( + Y2 19 ) Y1 )  )
( or ( <= ( + X1 91 ) X3 )  ( <= ( + X3 65 ) X1 )  ( <= ( + Y1 36 ) Y3 )  ( <= ( + Y3 25 ) Y1 )  )
( or ( <= ( + X1 91 ) X4 )  ( <= ( + X4 68 ) X1 )  ( <= ( + Y1 36 ) Y4 )  ( <= ( + Y4 38 ) Y1 )  )
( or ( <= ( + X1 91 ) X5 )  ( <= ( + X5 26 ) X1 )  ( <= ( + Y1 36 ) Y5 )  ( <= ( + Y5 32 ) Y1 )  )
( or ( <= ( + X1 91 ) X6 )  ( <= ( + X6 3 ) X1 )  ( <= ( + Y1 36 ) Y6 )  ( <= ( + Y6 45 ) Y1 )  )
( or ( <= ( + X1 91 ) X7 )  ( <= ( + X7 100 ) X1 )  ( <= ( + Y1 36 ) Y7 )  ( <= ( + Y7 70 ) Y1 )  )
( or ( <= ( + X1 91 ) X8 )  ( <= ( + X8 20 ) X1 )  ( <= ( + Y1 36 ) Y8 )  ( <= ( + Y8 88 ) Y1 )  )
( or ( <= ( + X1 91 ) X9 )  ( <= ( + X9 82 ) X1 )  ( <= ( + Y1 36 ) Y9 )  ( <= ( + Y9 65 ) Y1 )  )
( or ( <= ( + X1 91 ) X10 )  ( <= ( + X10 99 ) X1 )  ( <= ( + Y1 36 ) Y10 )  ( <= ( + Y10 26 ) Y1 )  )
( or ( <= ( + X1 91 ) X11 )  ( <= ( + X11 61 ) X1 )  ( <= ( + Y1 36 ) Y11 )  ( <= ( + Y11 83 ) Y1 )  )
( or ( <= ( + X1 91 ) X12 )  ( <= ( + X12 65 ) X1 )  ( <= ( + Y1 36 ) Y12 )  ( <= ( + Y12 67 ) Y1 )  )
( or ( <= ( + X1 91 ) X13 )  ( <= ( + X13 71 ) X1 )  ( <= ( + Y1 36 ) Y13 )  ( <= ( + Y13 51 ) Y1 )  )
( or ( <= ( + X1 91 ) X14 )  ( <= ( + X14 88 ) X1 )  ( <= ( + Y1 36 ) Y14 )  ( <= ( + Y14 73 ) Y1 )  )
( or ( <= ( + X1 91 ) X15 )  ( <= ( + X15 68 ) X1 )  ( <= ( + Y1 36 ) Y15 )  ( <= ( + Y15 21 ) Y1 )  )
( or ( <= ( + X1 91 ) X16 )  ( <= ( + X16 55 ) X1 )  ( <= ( + Y1 36 ) Y16 )  ( <= ( + Y16 67 ) Y1 )  )
( or ( <= ( + X1 91 ) X17 )  ( <= ( + X17 24 ) X1 )  ( <= ( + Y1 36 ) Y17 )  ( <= ( + Y17 92 ) Y1 )  )
( or ( <= ( + X2 3 ) X3 )  ( <= ( + X3 65 ) X2 )  ( <= ( + Y2 19 ) Y3 )  ( <= ( + Y3 25 ) Y2 )  )
( or ( <= ( + X2 3 ) X4 )  ( <= ( + X4 68 ) X2 )  ( <= ( + Y2 19 ) Y4 )  ( <= ( + Y4 38 ) Y2 )  )
( or ( <= ( + X2 3 ) X5 )  ( <= ( + X5 26 ) X2 )  ( <= ( + Y2 19 ) Y5 )  ( <= ( + Y5 32 ) Y2 )  )
( or ( <= ( + X2 3 ) X6 )  ( <= ( + X6 3 ) X2 )  ( <= ( + Y2 19 ) Y6 )  ( <= ( + Y6 45 ) Y2 )  )
( or ( <= ( + X2 3 ) X7 )  ( <= ( + X7 100 ) X2 )  ( <= ( + Y2 19 ) Y7 )  ( <= ( + Y7 70 ) Y2 )  )
( or ( <= ( + X2 3 ) X8 )  ( <= ( + X8 20 ) X2 )  ( <= ( + Y2 19 ) Y8 )  ( <= ( + Y8 88 ) Y2 )  )
( or ( <= ( + X2 3 ) X9 )  ( <= ( + X9 82 ) X2 )  ( <= ( + Y2 19 ) Y9 )  ( <= ( + Y9 65 ) Y2 )  )
( or ( <= ( + X2 3 ) X10 )  ( <= ( + X10 99 ) X2 )  ( <= ( + Y2 19 ) Y10 )  ( <= ( + Y10 26 ) Y2 )  )
( or ( <= ( + X2 3 ) X11 )  ( <= ( + X11 61 ) X2 )  ( <= ( + Y2 19 ) Y11 )  ( <= ( + Y11 83 ) Y2 )  )
( or ( <= ( + X2 3 ) X12 )  ( <= ( + X12 65 ) X2 )  ( <= ( + Y2 19 ) Y12 )  ( <= ( + Y12 67 ) Y2 )  )
( or ( <= ( + X2 3 ) X13 )  ( <= ( + X13 71 ) X2 )  ( <= ( + Y2 19 ) Y13 )  ( <= ( + Y13 51 ) Y2 )  )
( or ( <= ( + X2 3 ) X14 )  ( <= ( + X14 88 ) X2 )  ( <= ( + Y2 19 ) Y14 )  ( <= ( + Y14 73 ) Y2 )  )
( or ( <= ( + X2 3 ) X15 )  ( <= ( + X15 68 ) X2 )  ( <= ( + Y2 19 ) Y15 )  ( <= ( + Y15 21 ) Y2 )  )
( or ( <= ( + X2 3 ) X16 )  ( <= ( + X16 55 ) X2 )  ( <= ( + Y2 19 ) Y16 )  ( <= ( + Y16 67 ) Y2 )  )
( or ( <= ( + X2 3 ) X17 )  ( <= ( + X17 24 ) X2 )  ( <= ( + Y2 19 ) Y17 )  ( <= ( + Y17 92 ) Y2 )  )
( or ( <= ( + X3 65 ) X4 )  ( <= ( + X4 68 ) X3 )  ( <= ( + Y3 25 ) Y4 )  ( <= ( + Y4 38 ) Y3 )  )
( or ( <= ( + X3 65 ) X5 )  ( <= ( + X5 26 ) X3 )  ( <= ( + Y3 25 ) Y5 )  ( <= ( + Y5 32 ) Y3 )  )
( or ( <= ( + X3 65 ) X6 )  ( <= ( + X6 3 ) X3 )  ( <= ( + Y3 25 ) Y6 )  ( <= ( + Y6 45 ) Y3 )  )
( or ( <= ( + X3 65 ) X7 )  ( <= ( + X7 100 ) X3 )  ( <= ( + Y3 25 ) Y7 )  ( <= ( + Y7 70 ) Y3 )  )
( or ( <= ( + X3 65 ) X8 )  ( <= ( + X8 20 ) X3 )  ( <= ( + Y3 25 ) Y8 )  ( <= ( + Y8 88 ) Y3 )  )
( or ( <= ( + X3 65 ) X9 )  ( <= ( + X9 82 ) X3 )  ( <= ( + Y3 25 ) Y9 )  ( <= ( + Y9 65 ) Y3 )  )
( or ( <= ( + X3 65 ) X10 )  ( <= ( + X10 99 ) X3 )  ( <= ( + Y3 25 ) Y10 )  ( <= ( + Y10 26 ) Y3 )  )
( or ( <= ( + X3 65 ) X11 )  ( <= ( + X11 61 ) X3 )  ( <= ( + Y3 25 ) Y11 )  ( <= ( + Y11 83 ) Y3 )  )
( or ( <= ( + X3 65 ) X12 )  ( <= ( + X12 65 ) X3 )  ( <= ( + Y3 25 ) Y12 )  ( <= ( + Y12 67 ) Y3 )  )
( or ( <= ( + X3 65 ) X13 )  ( <= ( + X13 71 ) X3 )  ( <= ( + Y3 25 ) Y13 )  ( <= ( + Y13 51 ) Y3 )  )
( or ( <= ( + X3 65 ) X14 )  ( <= ( + X14 88 ) X3 )  ( <= ( + Y3 25 ) Y14 )  ( <= ( + Y14 73 ) Y3 )  )
( or ( <= ( + X3 65 ) X15 )  ( <= ( + X15 68 ) X3 )  ( <= ( + Y3 25 ) Y15 )  ( <= ( + Y15 21 ) Y3 )  )
( or ( <= ( + X3 65 ) X16 )  ( <= ( + X16 55 ) X3 )  ( <= ( + Y3 25 ) Y16 )  ( <= ( + Y16 67 ) Y3 )  )
( or ( <= ( + X3 65 ) X17 )  ( <= ( + X17 24 ) X3 )  ( <= ( + Y3 25 ) Y17 )  ( <= ( + Y17 92 ) Y3 )  )
( or ( <= ( + X4 68 ) X5 )  ( <= ( + X5 26 ) X4 )  ( <= ( + Y4 38 ) Y5 )  ( <= ( + Y5 32 ) Y4 )  )
( or ( <= ( + X4 68 ) X6 )  ( <= ( + X6 3 ) X4 )  ( <= ( + Y4 38 ) Y6 )  ( <= ( + Y6 45 ) Y4 )  )
( or ( <= ( + X4 68 ) X7 )  ( <= ( + X7 100 ) X4 )  ( <= ( + Y4 38 ) Y7 )  ( <= ( + Y7 70 ) Y4 )  )
( or ( <= ( + X4 68 ) X8 )  ( <= ( + X8 20 ) X4 )  ( <= ( + Y4 38 ) Y8 )  ( <= ( + Y8 88 ) Y4 )  )
( or ( <= ( + X4 68 ) X9 )  ( <= ( + X9 82 ) X4 )  ( <= ( + Y4 38 ) Y9 )  ( <= ( + Y9 65 ) Y4 )  )
( or ( <= ( + X4 68 ) X10 )  ( <= ( + X10 99 ) X4 )  ( <= ( + Y4 38 ) Y10 )  ( <= ( + Y10 26 ) Y4 )  )
( or ( <= ( + X4 68 ) X11 )  ( <= ( + X11 61 ) X4 )  ( <= ( + Y4 38 ) Y11 )  ( <= ( + Y11 83 ) Y4 )  )
( or ( <= ( + X4 68 ) X12 )  ( <= ( + X12 65 ) X4 )  ( <= ( + Y4 38 ) Y12 )  ( <= ( + Y12 67 ) Y4 )  )
( or ( <= ( + X4 68 ) X13 )  ( <= ( + X13 71 ) X4 )  ( <= ( + Y4 38 ) Y13 )  ( <= ( + Y13 51 ) Y4 )  )
( or ( <= ( + X4 68 ) X14 )  ( <= ( + X14 88 ) X4 )  ( <= ( + Y4 38 ) Y14 )  ( <= ( + Y14 73 ) Y4 )  )
( or ( <= ( + X4 68 ) X15 )  ( <= ( + X15 68 ) X4 )  ( <= ( + Y4 38 ) Y15 )  ( <= ( + Y15 21 ) Y4 )  )
( or ( <= ( + X4 68 ) X16 )  ( <= ( + X16 55 ) X4 )  ( <= ( + Y4 38 ) Y16 )  ( <= ( + Y16 67 ) Y4 )  )
( or ( <= ( + X4 68 ) X17 )  ( <= ( + X17 24 ) X4 )  ( <= ( + Y4 38 ) Y17 )  ( <= ( + Y17 92 ) Y4 )  )
( or ( <= ( + X5 26 ) X6 )  ( <= ( + X6 3 ) X5 )  ( <= ( + Y5 32 ) Y6 )  ( <= ( + Y6 45 ) Y5 )  )
( or ( <= ( + X5 26 ) X7 )  ( <= ( + X7 100 ) X5 )  ( <= ( + Y5 32 ) Y7 )  ( <= ( + Y7 70 ) Y5 )  )
( or ( <= ( + X5 26 ) X8 )  ( <= ( + X8 20 ) X5 )  ( <= ( + Y5 32 ) Y8 )  ( <= ( + Y8 88 ) Y5 )  )
( or ( <= ( + X5 26 ) X9 )  ( <= ( + X9 82 ) X5 )  ( <= ( + Y5 32 ) Y9 )  ( <= ( + Y9 65 ) Y5 )  )
( or ( <= ( + X5 26 ) X10 )  ( <= ( + X10 99 ) X5 )  ( <= ( + Y5 32 ) Y10 )  ( <= ( + Y10 26 ) Y5 )  )
( or ( <= ( + X5 26 ) X11 )  ( <= ( + X11 61 ) X5 )  ( <= ( + Y5 32 ) Y11 )  ( <= ( + Y11 83 ) Y5 )  )
( or ( <= ( + X5 26 ) X12 )  ( <= ( + X12 65 ) X5 )  ( <= ( + Y5 32 ) Y12 )  ( <= ( + Y12 67 ) Y5 )  )
( or ( <= ( + X5 26 ) X13 )  ( <= ( + X13 71 ) X5 )  ( <= ( + Y5 32 ) Y13 )  ( <= ( + Y13 51 ) Y5 )  )
( or ( <= ( + X5 26 ) X14 )  ( <= ( + X14 88 ) X5 )  ( <= ( + Y5 32 ) Y14 )  ( <= ( + Y14 73 ) Y5 )  )
( or ( <= ( + X5 26 ) X15 )  ( <= ( + X15 68 ) X5 )  ( <= ( + Y5 32 ) Y15 )  ( <= ( + Y15 21 ) Y5 )  )
( or ( <= ( + X5 26 ) X16 )  ( <= ( + X16 55 ) X5 )  ( <= ( + Y5 32 ) Y16 )  ( <= ( + Y16 67 ) Y5 )  )
( or ( <= ( + X5 26 ) X17 )  ( <= ( + X17 24 ) X5 )  ( <= ( + Y5 32 ) Y17 )  ( <= ( + Y17 92 ) Y5 )  )
( or ( <= ( + X6 3 ) X7 )  ( <= ( + X7 100 ) X6 )  ( <= ( + Y6 45 ) Y7 )  ( <= ( + Y7 70 ) Y6 )  )
( or ( <= ( + X6 3 ) X8 )  ( <= ( + X8 20 ) X6 )  ( <= ( + Y6 45 ) Y8 )  ( <= ( + Y8 88 ) Y6 )  )
( or ( <= ( + X6 3 ) X9 )  ( <= ( + X9 82 ) X6 )  ( <= ( + Y6 45 ) Y9 )  ( <= ( + Y9 65 ) Y6 )  )
( or ( <= ( + X6 3 ) X10 )  ( <= ( + X10 99 ) X6 )  ( <= ( + Y6 45 ) Y10 )  ( <= ( + Y10 26 ) Y6 )  )
( or ( <= ( + X6 3 ) X11 )  ( <= ( + X11 61 ) X6 )  ( <= ( + Y6 45 ) Y11 )  ( <= ( + Y11 83 ) Y6 )  )
( or ( <= ( + X6 3 ) X12 )  ( <= ( + X12 65 ) X6 )  ( <= ( + Y6 45 ) Y12 )  ( <= ( + Y12 67 ) Y6 )  )
( or ( <= ( + X6 3 ) X13 )  ( <= ( + X13 71 ) X6 )  ( <= ( + Y6 45 ) Y13 )  ( <= ( + Y13 51 ) Y6 )  )
( or ( <= ( + X6 3 ) X14 )  ( <= ( + X14 88 ) X6 )  ( <= ( + Y6 45 ) Y14 )  ( <= ( + Y14 73 ) Y6 )  )
( or ( <= ( + X6 3 ) X15 )  ( <= ( + X15 68 ) X6 )  ( <= ( + Y6 45 ) Y15 )  ( <= ( + Y15 21 ) Y6 )  )
( or ( <= ( + X6 3 ) X16 )  ( <= ( + X16 55 ) X6 )  ( <= ( + Y6 45 ) Y16 )  ( <= ( + Y16 67 ) Y6 )  )
( or ( <= ( + X6 3 ) X17 )  ( <= ( + X17 24 ) X6 )  ( <= ( + Y6 45 ) Y17 )  ( <= ( + Y17 92 ) Y6 )  )
( or ( <= ( + X7 100 ) X8 )  ( <= ( + X8 20 ) X7 )  ( <= ( + Y7 70 ) Y8 )  ( <= ( + Y8 88 ) Y7 )  )
( or ( <= ( + X7 100 ) X9 )  ( <= ( + X9 82 ) X7 )  ( <= ( + Y7 70 ) Y9 )  ( <= ( + Y9 65 ) Y7 )  )
( or ( <= ( + X7 100 ) X10 )  ( <= ( + X10 99 ) X7 )  ( <= ( + Y7 70 ) Y10 )  ( <= ( + Y10 26 ) Y7 )  )
( or ( <= ( + X7 100 ) X11 )  ( <= ( + X11 61 ) X7 )  ( <= ( + Y7 70 ) Y11 )  ( <= ( + Y11 83 ) Y7 )  )
( or ( <= ( + X7 100 ) X12 )  ( <= ( + X12 65 ) X7 )  ( <= ( + Y7 70 ) Y12 )  ( <= ( + Y12 67 ) Y7 )  )
( or ( <= ( + X7 100 ) X13 )  ( <= ( + X13 71 ) X7 )  ( <= ( + Y7 70 ) Y13 )  ( <= ( + Y13 51 ) Y7 )  )
( or ( <= ( + X7 100 ) X14 )  ( <= ( + X14 88 ) X7 )  ( <= ( + Y7 70 ) Y14 )  ( <= ( + Y14 73 ) Y7 )  )
( or ( <= ( + X7 100 ) X15 )  ( <= ( + X15 68 ) X7 )  ( <= ( + Y7 70 ) Y15 )  ( <= ( + Y15 21 ) Y7 )  )
( or ( <= ( + X7 100 ) X16 )  ( <= ( + X16 55 ) X7 )  ( <= ( + Y7 70 ) Y16 )  ( <= ( + Y16 67 ) Y7 )  )
( or ( <= ( + X7 100 ) X17 )  ( <= ( + X17 24 ) X7 )  ( <= ( + Y7 70 ) Y17 )  ( <= ( + Y17 92 ) Y7 )  )
( or ( <= ( + X8 20 ) X9 )  ( <= ( + X9 82 ) X8 )  ( <= ( + Y8 88 ) Y9 )  ( <= ( + Y9 65 ) Y8 )  )
( or ( <= ( + X8 20 ) X10 )  ( <= ( + X10 99 ) X8 )  ( <= ( + Y8 88 ) Y10 )  ( <= ( + Y10 26 ) Y8 )  )
( or ( <= ( + X8 20 ) X11 )  ( <= ( + X11 61 ) X8 )  ( <= ( + Y8 88 ) Y11 )  ( <= ( + Y11 83 ) Y8 )  )
( or ( <= ( + X8 20 ) X12 )  ( <= ( + X12 65 ) X8 )  ( <= ( + Y8 88 ) Y12 )  ( <= ( + Y12 67 ) Y8 )  )
( or ( <= ( + X8 20 ) X13 )  ( <= ( + X13 71 ) X8 )  ( <= ( + Y8 88 ) Y13 )  ( <= ( + Y13 51 ) Y8 )  )
( or ( <= ( + X8 20 ) X14 )  ( <= ( + X14 88 ) X8 )  ( <= ( + Y8 88 ) Y14 )  ( <= ( + Y14 73 ) Y8 )  )
( or ( <= ( + X8 20 ) X15 )  ( <= ( + X15 68 ) X8 )  ( <= ( + Y8 88 ) Y15 )  ( <= ( + Y15 21 ) Y8 )  )
( or ( <= ( + X8 20 ) X16 )  ( <= ( + X16 55 ) X8 )  ( <= ( + Y8 88 ) Y16 )  ( <= ( + Y16 67 ) Y8 )  )
( or ( <= ( + X8 20 ) X17 )  ( <= ( + X17 24 ) X8 )  ( <= ( + Y8 88 ) Y17 )  ( <= ( + Y17 92 ) Y8 )  )
( or ( <= ( + X9 82 ) X10 )  ( <= ( + X10 99 ) X9 )  ( <= ( + Y9 65 ) Y10 )  ( <= ( + Y10 26 ) Y9 )  )
( or ( <= ( + X9 82 ) X11 )  ( <= ( + X11 61 ) X9 )  ( <= ( + Y9 65 ) Y11 )  ( <= ( + Y11 83 ) Y9 )  )
( or ( <= ( + X9 82 ) X12 )  ( <= ( + X12 65 ) X9 )  ( <= ( + Y9 65 ) Y12 )  ( <= ( + Y12 67 ) Y9 )  )
( or ( <= ( + X9 82 ) X13 )  ( <= ( + X13 71 ) X9 )  ( <= ( + Y9 65 ) Y13 )  ( <= ( + Y13 51 ) Y9 )  )
( or ( <= ( + X9 82 ) X14 )  ( <= ( + X14 88 ) X9 )  ( <= ( + Y9 65 ) Y14 )  ( <= ( + Y14 73 ) Y9 )  )
( or ( <= ( + X9 82 ) X15 )  ( <= ( + X15 68 ) X9 )  ( <= ( + Y9 65 ) Y15 )  ( <= ( + Y15 21 ) Y9 )  )
( or ( <= ( + X9 82 ) X16 )  ( <= ( + X16 55 ) X9 )  ( <= ( + Y9 65 ) Y16 )  ( <= ( + Y16 67 ) Y9 )  )
( or ( <= ( + X9 82 ) X17 )  ( <= ( + X17 24 ) X9 )  ( <= ( + Y9 65 ) Y17 )  ( <= ( + Y17 92 ) Y9 )  )
( or ( <= ( + X10 99 ) X11 )  ( <= ( + X11 61 ) X10 )  ( <= ( + Y10 26 ) Y11 )  ( <= ( + Y11 83 ) Y10 )  )
( or ( <= ( + X10 99 ) X12 )  ( <= ( + X12 65 ) X10 )  ( <= ( + Y10 26 ) Y12 )  ( <= ( + Y12 67 ) Y10 )  )
( or ( <= ( + X10 99 ) X13 )  ( <= ( + X13 71 ) X10 )  ( <= ( + Y10 26 ) Y13 )  ( <= ( + Y13 51 ) Y10 )  )
( or ( <= ( + X10 99 ) X14 )  ( <= ( + X14 88 ) X10 )  ( <= ( + Y10 26 ) Y14 )  ( <= ( + Y14 73 ) Y10 )  )
( or ( <= ( + X10 99 ) X15 )  ( <= ( + X15 68 ) X10 )  ( <= ( + Y10 26 ) Y15 )  ( <= ( + Y15 21 ) Y10 )  )
( or ( <= ( + X10 99 ) X16 )  ( <= ( + X16 55 ) X10 )  ( <= ( + Y10 26 ) Y16 )  ( <= ( + Y16 67 ) Y10 )  )
( or ( <= ( + X10 99 ) X17 )  ( <= ( + X17 24 ) X10 )  ( <= ( + Y10 26 ) Y17 )  ( <= ( + Y17 92 ) Y10 )  )
( or ( <= ( + X11 61 ) X12 )  ( <= ( + X12 65 ) X11 )  ( <= ( + Y11 83 ) Y12 )  ( <= ( + Y12 67 ) Y11 )  )
( or ( <= ( + X11 61 ) X13 )  ( <= ( + X13 71 ) X11 )  ( <= ( + Y11 83 ) Y13 )  ( <= ( + Y13 51 ) Y11 )  )
( or ( <= ( + X11 61 ) X14 )  ( <= ( + X14 88 ) X11 )  ( <= ( + Y11 83 ) Y14 )  ( <= ( + Y14 73 ) Y11 )  )
( or ( <= ( + X11 61 ) X15 )  ( <= ( + X15 68 ) X11 )  ( <= ( + Y11 83 ) Y15 )  ( <= ( + Y15 21 ) Y11 )  )
( or ( <= ( + X11 61 ) X16 )  ( <= ( + X16 55 ) X11 )  ( <= ( + Y11 83 ) Y16 )  ( <= ( + Y16 67 ) Y11 )  )
( or ( <= ( + X11 61 ) X17 )  ( <= ( + X17 24 ) X11 )  ( <= ( + Y11 83 ) Y17 )  ( <= ( + Y17 92 ) Y11 )  )
( or ( <= ( + X12 65 ) X13 )  ( <= ( + X13 71 ) X12 )  ( <= ( + Y12 67 ) Y13 )  ( <= ( + Y13 51 ) Y12 )  )
( or ( <= ( + X12 65 ) X14 )  ( <= ( + X14 88 ) X12 )  ( <= ( + Y12 67 ) Y14 )  ( <= ( + Y14 73 ) Y12 )  )
( or ( <= ( + X12 65 ) X15 )  ( <= ( + X15 68 ) X12 )  ( <= ( + Y12 67 ) Y15 )  ( <= ( + Y15 21 ) Y12 )  )
( or ( <= ( + X12 65 ) X16 )  ( <= ( + X16 55 ) X12 )  ( <= ( + Y12 67 ) Y16 )  ( <= ( + Y16 67 ) Y12 )  )
( or ( <= ( + X12 65 ) X17 )  ( <= ( + X17 24 ) X12 )  ( <= ( + Y12 67 ) Y17 )  ( <= ( + Y17 92 ) Y12 )  )
( or ( <= ( + X13 71 ) X14 )  ( <= ( + X14 88 ) X13 )  ( <= ( + Y13 51 ) Y14 )  ( <= ( + Y14 73 ) Y13 )  )
( or ( <= ( + X13 71 ) X15 )  ( <= ( + X15 68 ) X13 )  ( <= ( + Y13 51 ) Y15 )  ( <= ( + Y15 21 ) Y13 )  )
( or ( <= ( + X13 71 ) X16 )  ( <= ( + X16 55 ) X13 )  ( <= ( + Y13 51 ) Y16 )  ( <= ( + Y16 67 ) Y13 )  )
( or ( <= ( + X13 71 ) X17 )  ( <= ( + X17 24 ) X13 )  ( <= ( + Y13 51 ) Y17 )  ( <= ( + Y17 92 ) Y13 )  )
( or ( <= ( + X14 88 ) X15 )  ( <= ( + X15 68 ) X14 )  ( <= ( + Y14 73 ) Y15 )  ( <= ( + Y15 21 ) Y14 )  )
( or ( <= ( + X14 88 ) X16 )  ( <= ( + X16 55 ) X14 )  ( <= ( + Y14 73 ) Y16 )  ( <= ( + Y16 67 ) Y14 )  )
( or ( <= ( + X14 88 ) X17 )  ( <= ( + X17 24 ) X14 )  ( <= ( + Y14 73 ) Y17 )  ( <= ( + Y17 92 ) Y14 )  )
( or ( <= ( + X15 68 ) X16 )  ( <= ( + X16 55 ) X15 )  ( <= ( + Y15 21 ) Y16 )  ( <= ( + Y16 67 ) Y15 )  )
( or ( <= ( + X15 68 ) X17 )  ( <= ( + X17 24 ) X15 )  ( <= ( + Y15 21 ) Y17 )  ( <= ( + Y17 92 ) Y15 )  )
( or ( <= ( + X16 55 ) X17 )  ( <= ( + X17 24 ) X16 )  ( <= ( + Y16 67 ) Y17 )  ( <= ( + Y17 92 ) Y16 )  )
( >= X0 0)
( <= ( + X0 26) Z)
( >= Y0 0)
( <= ( + Y0 69 ) 100)
( >= X1 0)
( <= ( + X1 91) Z)
( >= Y1 0)
( <= ( + Y1 36 ) 100)
( >= X2 0)
( <= ( + X2 3) Z)
( >= Y2 0)
( <= ( + Y2 19 ) 100)
( >= X3 0)
( <= ( + X3 65) Z)
( >= Y3 0)
( <= ( + Y3 25 ) 100)
( >= X4 0)
( <= ( + X4 68) Z)
( >= Y4 0)
( <= ( + Y4 38 ) 100)
( >= X5 0)
( <= ( + X5 26) Z)
( >= Y5 0)
( <= ( + Y5 32 ) 100)
( >= X6 0)
( <= ( + X6 3) Z)
( >= Y6 0)
( <= ( + Y6 45 ) 100)
( >= X7 0)
( <= ( + X7 100) Z)
( >= Y7 0)
( <= ( + Y7 70 ) 100)
( >= X8 0)
( <= ( + X8 20) Z)
( >= Y8 0)
( <= ( + Y8 88 ) 100)
( >= X9 0)
( <= ( + X9 82) Z)
( >= Y9 0)
( <= ( + Y9 65 ) 100)
( >= X10 0)
( <= ( + X10 99) Z)
( >= Y10 0)
( <= ( + Y10 26 ) 100)
( >= X11 0)
( <= ( + X11 61) Z)
( >= Y11 0)
( <= ( + Y11 83 ) 100)
( >= X12 0)
( <= ( + X12 65) Z)
( >= Y12 0)
( <= ( + Y12 67 ) 100)
( >= X13 0)
( <= ( + X13 71) Z)
( >= Y13 0)
( <= ( + Y13 51 ) 100)
( >= X14 0)
( <= ( + X14 88) Z)
( >= Y14 0)
( <= ( + Y14 73 ) 100)
( >= X15 0)
( <= ( + X15 68) Z)
( >= Y15 0)
( <= ( + Y15 21 ) 100)
( >= X16 0)
( <= ( + X16 55) Z)
( >= Y16 0)
( <= ( + Y16 67 ) 100)
( >= X17 0)
( <= ( + X17 24) Z)
( >= Y17 0)
( <= ( + Y17 92 ) 100)
) )
)(=> $phi $goal))))